Speck32/MILP/sol/6Round_197.sol
# Objective value = 15.999999999999996
pro0Rd0 1.0
pro1Rd0 1.0
pro2Rd0 0.9999999999999998
pro3Rd0 0.9999999999999998
pro4Rd0 0.0
pro5Rd0 1.0
pro6Rd0 -0.0
pro7Rd0 -1.27675647831893e-15
pro8Rd0 9.71445146547012e-17
pro9Rd0 2.7755575615628914e-17
pro10Rd0 0.0
pro11Rd0 -0.0
pro12Rd0 1.0
pro13Rd0 -3.3306690738754696e-16
pro14Rd0 -7.771561172376096e-16
pro0Rd1 4.440892098500626e-16
pro1Rd1 0.0
pro2Rd1 -3.3306690738754696e-16
pro3Rd1 -0.0
pro4Rd1 -0.0
pro5Rd1 3.3306690738754696e-16
pro6Rd1 0.0
pro7Rd1 -1.249000902703301e-16
pro8Rd1 1.0
pro9Rd1 0.0
pro10Rd1 1.0000000000000002
pro11Rd1 0.0
pro12Rd1 9.992007221626409e-16
pro13Rd1 -3.3306690738754696e-16
pro14Rd1 -0.0
pro0Rd2 -0.0
pro1Rd2 0.0
pro2Rd2 1.942890293094024e-16
pro3Rd2 1.6653345369377348e-16
pro4Rd2 3.3306690738754696e-16
pro5Rd2 -3.3306690738754696e-16
pro6Rd2 -0.0
pro7Rd2 -3.3306690738754696e-16
pro8Rd2 -0.0
pro9Rd2 -0.0
pro10Rd2 -0.0
pro11Rd2 0.0
pro12Rd2 1.6653345369377348e-16
pro13Rd2 0.0
pro14Rd2 -4.163336342344337e-17
pro0Rd3 0.0
pro1Rd3 0.0
pro2Rd3 0.0
pro3Rd3 1.942890293094024e-16
pro4Rd3 -0.0
pro5Rd3 -0.0
pro6Rd3 1.0
pro7Rd3 -0.0
pro8Rd3 0.0
pro9Rd3 0.0
pro10Rd3 -0.0
pro11Rd3 -5.204170427930421e-18
pro12Rd3 -1.5265566588595902e-16
pro13Rd3 -0.0
pro14Rd3 -0.0
pro0Rd4 0.0
pro1Rd4 -0.0
pro2Rd4 -3.469446951953614e-18
pro3Rd4 -5.204170427930421e-18
pro4Rd4 -2.0816681711721685e-17
pro5Rd4 0.0
pro6Rd4 1.0
pro7Rd4 0.0
pro8Rd4 -8.326672684688674e-17
pro9Rd4 -0.0
pro10Rd4 -8.673617379884035e-18
pro11Rd4 -5.204170427930421e-18
pro12Rd4 -5.204170427930421e-18
pro13Rd4 1.0
pro14Rd4 -0.0
pro0Rd5 0.0
pro1Rd5 1.3877787807814457e-17
pro2Rd5 -0.0
pro3Rd5 -5.204170427930421e-18
pro4Rd5 1.0
pro5Rd5 1.0
pro6Rd5 1.0
pro7Rd5 -3.3306690738754696e-16
pro8Rd5 -0.0
pro9Rd5 0.0
pro10Rd5 -9.540979117872439e-18
pro11Rd5 0.9999999999999999
pro12Rd5 1.0408340855860843e-17
pro13Rd5 1.0
pro14Rd5 0.0
p0 0.0
p1 2.220446049250313e-16
p2 9.71445146547012e-17
p3 1.1102230246251565e-16
p4 -0.0
p5 -3.3306690738754696e-16
p6 1.0
p7 -0.0
p8 -9.08995101411847e-16
p9 -0.0
p10 1.0
p11 1.0
p12 1.0
p13 0.0
p14 -0.0
p15 1.0000000000000009
p16 -0.0
p17 -0.0
p18 -0.0
p19 -0.0
p20 1.0
p21 -0.0
p22 1.0
p23 0.0
p24 -7.771561172376096e-16
p25 1.942890293094024e-16
p26 1.3877787807814457e-16
p27 0.0
p28 -3.3306690738754696e-16
p29 1.0
p30 -3.3306690738754696e-16
p31 -7.771561172376096e-16
p0Rd1 -0.0
p16Rd1 -1.1102230246251565e-16
temp0Rnd0 0.0
p1Rd1 -0.0
p17Rd1 -3.3306690738754696e-16
temp1Rnd0 -5.551115123125783e-16
p2Rd1 1.0
p18Rd1 0.0
temp2Rnd0 1.0
p3Rd1 -0.0
p19Rd1 -3.3306690738754696e-16
temp3Rnd0 -2.7755575615628914e-16
p4Rd1 1.0
p20Rd1 -0.0
temp4Rnd0 1.0
p5Rd1 0.0
p21Rd1 -0.0
temp5Rnd0 0.0
p6Rd1 -7.771561172376096e-16
p22Rd1 0.0
temp6Rnd0 -7.771561172376096e-16
p7Rd1 -0.0
p23Rd1 -1.942890293094024e-16
temp7Rnd0 0.0
p8Rd1 0.0
p24Rd1 1.3877787807814457e-16
temp8Rnd0 1.3877787807814457e-16
p9Rd1 -0.0
p25Rd1 -0.0
temp9Rnd0 0.0
p10Rd1 -1.1102230246251565e-16
p26Rd1 4.440892098500626e-16
temp10Rnd0 0.0
p11Rd1 0.0
p27Rd1 1.0
temp11Rnd0 1.0
p12Rd1 -3.3306690738754696e-16
p28Rd1 0.0
temp12Rnd0 -3.3306690738754696e-16
p13Rd1 -0.0
p29Rd1 -7.771561172376096e-16
temp13Rnd0 -7.771561172376096e-16
p14Rd1 -0.0
p30Rd1 -0.0
temp14Rnd0 0.0
p15Rd1 3.3306690738754696e-16
p31Rd1 -0.0
temp15Rnd0 1.6653345369377348e-16
temp0 -7.771561172376096e-16
p0Rd2 0.0
p16Rd2 -0.0
temp0Rnd1 -0.0
p1Rd2 -3.3306690738754696e-16
p17Rd2 0.0
temp1Rnd1 -3.3306690738754696e-16
p2Rd2 -0.0
p18Rd2 0.0
temp2Rnd1 0.0
p3Rd2 0.0
p19Rd2 0.0
temp3Rnd1 -0.0
p4Rd2 -0.0
p20Rd2 0.0
temp4Rnd1 -0.0
p5Rd2 -0.0
p21Rd2 -1.942890293094024e-16
temp5Rnd1 -1.942890293094024e-16
p6Rd2 3.3306690738754696e-16
p22Rd2 -3.3306690738754696e-16
temp6Rnd1 1.3877787807814457e-16
p7Rd2 -0.0
p23Rd2 0.0
temp7Rnd1 -0.0
p8Rd2 -4.163336342344337e-17
p24Rd2 -3.3306690738754696e-16
temp8Rnd1 -4.163336342344337e-17
p9Rd2 1.0
p25Rd2 0.0
temp9Rnd1 1.0
p10Rd2 0.0
p26Rd2 0.0
temp10Rnd1 0.0
p11Rd2 0.0
p27Rd2 -0.0
temp11Rnd1 -3.608224830031759e-16
p12Rd2 0.0
p28Rd2 -0.0
temp12Rnd1 0.0
p13Rd2 1.6653345369377348e-16
p29Rd2 1.6653345369377348e-16
temp13Rnd1 1.6653345369377348e-16
p14Rd2 3.3306690738754696e-16
p30Rd2 -0.0
temp14Rnd1 3.3306690738754696e-16
p15Rd2 -0.0
p31Rd2 -4.163336342344337e-17
temp15Rnd1 -2.220446049250313e-16
temp1 0.0
p0Rd3 1.0
p16Rd3 1.0
temp0Rnd2 1.0
p1Rd3 0.0
p17Rd3 0.0
temp1Rnd2 0.0
p2Rd3 -0.0
p18Rd3 0.0
temp2Rnd2 -0.0
p3Rd3 1.942890293094024e-16
p19Rd3 -0.0
temp3Rnd2 0.0
p4Rd3 1.6653345369377348e-16
p20Rd3 -1.6653345369377348e-16
temp4Rnd2 -1.6653345369377348e-16
p5Rd3 0.0
p21Rd3 0.0
temp5Rnd2 0.0
p6Rd3 -3.3306690738754696e-16
p22Rd3 -0.0
temp6Rnd2 -3.3306690738754696e-16
p7Rd3 -0.0
p23Rd3 0.0
temp7Rnd2 0.0
p8Rd3 -0.0
p24Rd3 0.0
temp8Rnd2 0.0
p9Rd3 0.0
p25Rd3 0.0
temp9Rnd2 0.0
p10Rd3 0.0
p26Rd3 0.0
temp10Rnd2 0.0
p11Rd3 0.0
p27Rd3 1.6653345369377348e-16
temp11Rnd2 1.6653345369377348e-16
p12Rd3 -0.0
p28Rd3 -0.0
temp12Rnd2 0.0
p13Rd3 -3.885780586188048e-16
p29Rd3 -3.3306690738754696e-16
temp13Rnd2 -3.885780586188048e-16
p14Rd3 0.0
p30Rd3 -0.0
temp14Rnd2 -0.0
p15Rd3 0.0
p31Rd3 -0.0
temp15Rnd2 -0.0
temp2 -4.163336342344337e-17
p0Rd4 1.0
p16Rd4 1.0
temp0Rnd3 1.0
p1Rd4 0.0
p17Rd4 0.0
temp1Rnd3 0.0
p2Rd4 0.0
p18Rd4 1.6653345369377348e-16
temp2Rnd3 0.0
p3Rd4 -5.204170427930421e-18
p19Rd4 -5.204170427930421e-18
temp3Rnd3 -5.204170427930421e-18
p4Rd4 -1.3877787807814457e-17
p20Rd4 -1.3877787807814457e-17
temp4Rnd3 -1.3877787807814457e-17
p5Rd4 -0.0
p21Rd4 0.0
temp5Rnd3 -0.0
p6Rd4 -0.0
p22Rd4 0.0
temp6Rnd3 0.0
p7Rd4 1.0
p23Rd4 1.0
temp7Rnd3 1.0
p8Rd4 -0.0
p24Rd4 0.0
temp8Rnd3 0.0
p9Rd4 -0.0
p25Rd4 1.6653345369377348e-16
temp9Rnd3 1.6653345369377348e-16
p10Rd4 0.0
p26Rd4 -0.0
temp10Rnd3 0.0
p11Rd4 1.6653345369377348e-16
p27Rd4 -2.42861286636753e-17
temp11Rnd3 -2.7755575615628914e-16
p12Rd4 -5.204170427930421e-18
p28Rd4 -5.204170427930421e-18
temp12Rnd3 -5.204170427930421e-18
p13Rd4 -5.204170427930421e-18
p29Rd4 -5.204170427930421e-18
temp13Rnd3 -5.204170427930421e-18
p14Rd4 -0.0
p30Rd4 1.0
temp14Rnd3 1.0
p15Rd4 0.0
p31Rd4 -0.0
temp15Rnd3 0.0
temp3 0.0
p0Rd5 1.0
p16Rd5 0.9999999999999998
temp0Rnd4 1.0
p1Rd5 -0.0
p17Rd5 0.0
temp1Rnd4 -2.6020852139652106e-18
p2Rd5 -4.163336342344337e-17
p18Rd5 -4.85722573273506e-17
temp2Rnd4 -4.163336342344337e-17
p3Rd5 -1.0408340855860843e-17
p19Rd5 -1.0408340855860843e-17
temp3Rnd4 -1.0408340855860843e-17
p4Rd5 -0.0
p20Rd5 -0.0
temp4Rnd4 -0.0
p5Rd5 -2.0816681711721685e-17
p21Rd5 1.0
temp5Rnd4 1.0
p6Rd5 0.0
p22Rd5 -0.0
temp6Rnd4 0.0
p7Rd5 -0.0
p23Rd5 1.6653345369377348e-16
temp7Rnd4 1.6653345369377348e-16
p8Rd5 -0.0
p24Rd5 0.0
temp8Rnd4 0.0
p9Rd5 8.326672684688674e-17
p25Rd5 -4.163336342344337e-17
temp9Rnd4 -0.0
p10Rd5 0.0
p26Rd5 -1.0408340855860843e-17
temp10Rnd4 -5.204170427930421e-18
p11Rd5 -1.214306433183765e-17
p27Rd5 -9.540979117872439e-18
temp11Rnd4 -1.214306433183765e-17
p12Rd5 -1.0408340855860843e-17
p28Rd5 0.9999999999999999
temp12Rnd4 1.0
p13Rd5 -1.0408340855860843e-17
p29Rd5 -1.0408340855860843e-17
temp13Rnd4 -1.0408340855860843e-17
p14Rd5 -0.0
p30Rd5 1.0
temp14Rnd4 1.0
p15Rd5 0.0
p31Rd5 0.0
temp15Rnd4 0.0
temp4 0.0
p0Rd6 0.9999999999999998
p16Rd6 0.9999999999999998
temp0Rnd5 0.9999999999999998
p1Rd6 0.0
p17Rd6 -0.0
temp1Rnd5 -5.204170427930421e-18
p2Rd6 -4.163336342344337e-17
p18Rd6 -4.163336342344337e-17
temp2Rnd5 -4.163336342344337e-17
p3Rd6 -1.0408340855860843e-17
p19Rd6 1.0
temp3Rnd5 1.0
p4Rd6 -5.204170427930421e-18
p20Rd6 5.204170427930421e-18
temp4Rnd5 -0.0
p5Rd6 0.9999999999999998
p21Rd6 1.0
temp5Rnd5 1.0
p6Rd6 1.0
p22Rd6 1.0
temp6Rnd5 1.0
p7Rd6 1.0000000000000002
p23Rd6 1.0
temp7Rnd5 1.0000000000000002
p8Rd6 -4.163336342344337e-17
p24Rd6 -0.0
temp8Rnd5 -6.938893903907228e-18
p9Rd6 -4.163336342344337e-17
p25Rd6 -5.551115123125783e-17
temp9Rnd5 -4.163336342344337e-17
p10Rd6 -1.0408340855860843e-17
p26Rd6 1.0
temp10Rnd5 1.0
p11Rd6 -1.9081958235744878e-17
p27Rd6 1.3444106938820255e-17
temp11Rnd5 -1.0408340855860843e-17
p12Rd6 1.0
p28Rd6 0.0
temp12Rnd5 1.0
p13Rd6 0.0
p29Rd6 0.0
temp13Rnd5 0.0
p14Rd6 1.0
p30Rd6 -1.6653345369377348e-16
temp14Rnd5 0.9999999999999998
p15Rd6 0.0
p31Rd6 -0.0
temp15Rnd5 0.0
temp5 0.0
